NAME           ..\..\data\testmip.ltx
ROWS
 N       OBJ
 G  Q1______
 G  Q2______
 G  Q3______
 G  Q4______
 G  Q5______
 G  Q6______
 G  Q7______
 G  Q8______
 G  Q9______
 G  Q10_____
 L  STOCK3__
 L  STOCK4__
COLUMNS
    INT0000B  'MARKER'                 'INTORG'
          N1       OBJ         1.051
          N1  Q3______             1   Q10_____             1
          N1  STOCK4__             1
          N2       OBJ         0.901
          N2  Q5______             2   Q9______             2
          N2  Q10_____             1   STOCK3__             1
          N3       OBJ         0.901
          N3  Q4______             1   Q5______             1
          N3  Q8______             1   STOCK3__             1
          N4       OBJ         1.051
          N4  Q4______             2   Q8______             2
          N4  Q10_____             1   STOCK4__             1
          N5       OBJ         1.051
          N5  Q6______             3   Q8______             3
          N5  STOCK4__             1
          N6       OBJ         1.051
          N6  Q1______             1   STOCK4__             1
          N7       OBJ         0.901
          N7  Q5______             2   Q6______             2
          N7  STOCK3__             1
          N8       OBJ         0.901
          N8  Q4______             1   Q6______             1
          N8  Q7______             1   STOCK3__             1
          N9       OBJ         1.051
          N9  Q5______             3   Q10_____             3
          N9  STOCK4__             1
         N10       OBJ         1.051
         N10  Q6______             2   Q7______             2
         N10  Q8______             1   STOCK4__             1
         N11       OBJ         0.901
         N11  Q5______             2   Q7______             2
         N11  STOCK3__             1
         N12       OBJ         1.051
         N12  Q8______             4   Q10_____             4
         N12  STOCK4__             1
         N13       OBJ         1.051
         N13  Q2______             1   STOCK4__             1
         N14       OBJ         0.901
         N14  Q6______             2   Q8______             2
         N14  Q10_____             1   STOCK3__             1
         N15       OBJ         0.901
         N15  Q4______             2   Q9______             2
         N15  STOCK3__             1
         N16       OBJ         1.051
         N16  Q7______             3   Q8______             3
         N16  STOCK4__             1
         N17       OBJ         1.051
         N17  Q5______             2   Q8______             2
         N17  Q9______             1   STOCK4__             1
         N18       OBJ         0.901
         N18  Q7______             2   Q8______             2
         N18  Q10_____             1   STOCK3__             1
         N19       OBJ         0.901
         N19  Q8______             3   Q9______             3
         N19  STOCK3__             1
         N20       OBJ         1.051
         N20  Q4______             2   Q5______             2
         N20  STOCK4__             1
         N21       OBJ         0.901
         N21  Q4______             1   Q6______             1
         N21  Q8______             1   STOCK3__             1
         N22       OBJ         0.901
         N22  Q5______             2   Q8______             2
         N22  STOCK3__             1
         N23       OBJ         0.901
         N23  Q4______             1   Q7______             1
         N23  Q8______             1   STOCK3__             1
         N24       OBJ         1.051
         N24  Q5______             2   Q6______             2
         N24  Q10_____             1   STOCK4__             1
         N25       OBJ         0.901
         N25  Q5______             1   Q6______             1
         N25  Q7______             1   STOCK3__             1
         N26       OBJ         1.051
         N26  Q3______             1   STOCK4__             1
         N27       OBJ         1.051
         N27  Q5______             2   Q7______             2
         N27  Q10_____             1   STOCK4__             1
    INT0000E  'MARKER'                 'INTEND'
RHS
    RHS1      Q1______             6
    RHS1      Q2______            12
    RHS1      Q3______            48
    RHS1      Q4______             4
    RHS1      Q5______             8
    RHS1      Q6______             4
    RHS1      Q7______            20
    RHS1      Q8______             4
    RHS1      Q9______             4
    RHS1      Q10_____             4
    RHS1      STOCK3__           900
    RHS1      STOCK4__           450
BOUNDS
 UP BND1            N1            86
 UP BND1            N2           101
 UP BND1            N3           101
 UP BND1            N4            86
 UP BND1            N5            86
 UP BND1            N6            86
 UP BND1            N7           101
 UP BND1            N8           101
 UP BND1            N9            86
 UP BND1           N10            86
 UP BND1           N11           101
 UP BND1           N12            86
 UP BND1           N13            86
 UP BND1           N14           101
 UP BND1           N15           101
 UP BND1           N16            86
 UP BND1           N17            86
 UP BND1           N18           101
 UP BND1           N19           101
 UP BND1           N20            86
 UP BND1           N21           101
 UP BND1           N22           101
 UP BND1           N23           101
 UP BND1           N24            86
 UP BND1           N25           101
 UP BND1           N26            86
 UP BND1           N27            86
ENDATA
